-25 23 -27 0
23 -27 0
d -25 23 -27 0
-23 -27 0
d -23 -24 -27 0
-27 0
24 -23 0
-24 -23 0
d -24 -21 -23 0
-23 0
20 0
26 0
24 0
-10 0
-12 0
-6 0
7 0
13 0
9 0
15 0
3 0
-21 0
-1 0
-22 0
-17 0
2 0
8 0
18 0
4 0
25 0
19 0
14 0
-16 0
0
